language Essence 1.3

letting class be
        function(1 --> 4, 2 --> 8, 3 --> 4, 4 --> 5, 5 --> 6, 6 --> 8, 7 --> 4, 8 --> 8, 9 --> 7, 10 --> 2, 11 --> 6,
                 12 --> 5, 13 --> 3, 14 --> 1, 15 --> 9, 16 --> 2, 17 --> 9, 18 --> 3, 19 --> 8, 20 --> 6, 21 --> 8,
                 22 --> 1, 23 --> 9, 24 --> 7, 25 --> 3, 26 --> 7, 27 --> 4, 28 --> 6)
letting deck_length be 21
letting deck_width be 53
letting length be
        function(1 --> 6, 2 --> 19, 3 --> 13, 4 --> 1, 5 --> 15, 6 --> 20, 7 --> 8, 8 --> 17, 9 --> 14, 10 --> 16,
                 11 --> 6, 12 --> 2, 13 --> 12, 14 --> 5, 15 --> 15, 16 --> 7, 17 --> 16, 18 --> 6, 19 --> 17, 20 --> 7,
                 21 --> 12, 22 --> 18, 23 --> 12, 24 --> 8, 25 --> 13, 26 --> 5, 27 --> 13, 28 --> 3)
letting n_classes be 9
letting n_containers be 28
letting separation be function({7, 9} --> 20)
letting width be
        function(1 --> 1, 2 --> 2, 3 --> 1, 4 --> 3, 5 --> 1, 6 --> 26, 7 --> 1, 8 --> 1, 9 --> 1, 10 --> 1, 11 --> 1,
                 12 --> 1, 13 --> 1, 14 --> 1, 15 --> 1, 16 --> 2, 17 --> 1, 18 --> 1, 19 --> 10, 20 --> 1, 21 --> 1,
                 22 --> 1, 23 --> 1, 24 --> 1, 25 --> 1, 26 --> 1, 27 --> 1, 28 --> 2)
